Route #1: 118 80 64 47 2 28 109
Route #2: 96 95 119 110 37 56 31 86 63
Route #3: 65 102 59 81 66 41 23 48 69 26
Route #4: 94 27
Route #5: 5 108 42 8 78
Route #6: 21 30 105 72 120
Route #7: 73 99 70
Route #8: 68 33 11
Route #9: 122 55 92 22
Route #10: 85 54 40 9
Route #11: 19 46
Route #12: 114 34 6
Route #13: 121 76
Route #14: 13 38
Route #15: 104 36
Route #16: 101 58 49
Route #17: 87 112
Route #18: 62 84 123
Route #19: 74 111 77
Route #20: 100 113
Route #21: 39 97
Route #22: 61 91 103
Route #23: 32 4
Route #24: 124 43 82 17 44 107
Route #25: 10 20 12 115 88 93 75
Route #26: 25 50 15 98 45 53
Route #27: 79 125 3 35 7 71 60 29 14
Route #28: 24 67 117 51 16 18
Route #29: 57 83
Route #30: 116 89 90 106 52
